
Log started (V12.6.3.0) Tue Jun  6 12:38:50 2017

New value for default parallel thread count: 1

Problem '/tmp/tmpKzhgO8.pyomo.lp' read.
Read time = 0.00 sec. (0.23 ticks)

Problem name         : /tmp/tmpKzhgO8.pyomo.lp
Objective sense      : Minimize
Variables            :    2462  [Nneg: 2431,  Binary: 30,  General Integer: 1]
Objective nonzeros   :       1
Linear constraints   :    1211  [Less: 30,  Equal: 1181]
  Nonzeros           :    8428
  RHS nonzeros       :      43

Variables            : Min LB: 0.000000         Max UB: 1.000000       
Objective nonzeros   : Min   : 1.000000         Max   : 1.000000       
Linear constraints   :
  Nonzeros           : Min   : 0.9800000        Max   : 20.00000       
  RHS nonzeros       : Min   : 0.5000000        Max   : 19.00000       
Tried aggregator 2 times.
MIP Presolve eliminated 1144 rows and 2230 columns.
MIP Presolve added 1 rows and 1 columns.
Aggregator did 7 substitutions.
Reduced MIP has 61 rows, 226 columns, and 658 nonzeros.
Reduced MIP has 22 binaries, 1 generals, 0 SOSs, and 0 indicators.
Presolve time = 0.00 sec. (2.22 ticks)
Found incumbent of value 26.000000 after 0.00 sec. (3.15 ticks)
Probing fixed 0 vars, tightened 1 bounds.
Probing time = 0.00 sec. (0.04 ticks)
Tried aggregator 1 time.
Reduced MIP has 61 rows, 226 columns, and 658 nonzeros.
Reduced MIP has 22 binaries, 1 generals, 0 SOSs, and 0 indicators.
Presolve time = 0.00 sec. (0.26 ticks)
Probing time = 0.00 sec. (0.04 ticks)
Clique table members: 6.
MIP emphasis: balance optimality and feasibility.
MIP search method: dynamic search.
Parallel mode: none, using 1 thread.
Root relaxation solution time = 0.00 sec. (0.61 ticks)

        Nodes                                         Cuts/
   Node  Left     Objective  IInf  Best Integer    Best Bound    ItCnt     Gap

*     0+    0                           26.0000        5.0000            80.77%
      0     0        9.7558    11       26.0000        9.7558       97   62.48%
*     0+    0                           16.0000        9.7558            39.03%
      0     0       10.7406     8       16.0000      Cuts: 56      143   32.87%
      0     0       11.5783    10       16.0000      Cuts: 61      295   27.64%
*     0+    0                           12.0000       11.5783             3.51%
      0     0        cutoff             12.0000       11.5783      295    3.51%
Elapsed time = 0.01 sec. (9.39 ticks, tree = 0.01 MB, solutions = 3)

Clique cuts applied:  2
Cover cuts applied:  5
Implied bound cuts applied:  13
Flow cuts applied:  6
Mixed integer rounding cuts applied:  8

Root node processing (before b&c):
  Real time             =    0.01 sec. (9.49 ticks)
Sequential b&c:
  Real time             =    0.00 sec. (0.00 ticks)
                          ------------
Total (root+branch&cut) =    0.01 sec. (9.49 ticks)

Solution pool: 3 solutions saved.

MIP - Integer optimal solution:  Objective =  1.2000000000e+01
Solution time =    0.01 sec.  Iterations = 295  Nodes = 0
Deterministic time = 9.50 ticks  (807.71 ticks/sec)


Incumbent solution written to file '/tmp/tmpdjOb2u.cplex.sol'.

Log started (V12.6.3.0) Mon Jul 24 16:43:30 2017

New value for default parallel thread count: 1

Problem '/tmp/tmpJHL078.pyomo.lp' read.
Read time = 0.00 sec. (0.23 ticks)

Problem name         : /tmp/tmpJHL078.pyomo.lp
Objective sense      : Minimize
Variables            :    2462  [Nneg: 2431,  Binary: 30,  General Integer: 1]
Objective nonzeros   :       1
Linear constraints   :    1211  [Less: 30,  Equal: 1181]
  Nonzeros           :    8428
  RHS nonzeros       :      43

Variables            : Min LB: 0.000000         Max UB: 1.000000       
Objective nonzeros   : Min   : 1.000000         Max   : 1.000000       
Linear constraints   :
  Nonzeros           : Min   : 0.9800000        Max   : 20.00000       
  RHS nonzeros       : Min   : 0.5000000        Max   : 19.00000       
Tried aggregator 2 times.
MIP Presolve eliminated 1144 rows and 2230 columns.
MIP Presolve added 1 rows and 1 columns.
Aggregator did 7 substitutions.
Reduced MIP has 61 rows, 226 columns, and 658 nonzeros.
Reduced MIP has 22 binaries, 1 generals, 0 SOSs, and 0 indicators.
Presolve time = 0.00 sec. (2.22 ticks)
Found incumbent of value 26.000000 after 0.00 sec. (3.15 ticks)
Probing fixed 0 vars, tightened 1 bounds.
Probing time = 0.00 sec. (0.04 ticks)
Tried aggregator 1 time.
Reduced MIP has 61 rows, 226 columns, and 658 nonzeros.
Reduced MIP has 22 binaries, 1 generals, 0 SOSs, and 0 indicators.
Presolve time = 0.00 sec. (0.26 ticks)
Probing time = 0.00 sec. (0.04 ticks)
Clique table members: 6.
MIP emphasis: balance optimality and feasibility.
MIP search method: dynamic search.
Parallel mode: none, using 1 thread.
Root relaxation solution time = 0.00 sec. (0.61 ticks)

        Nodes                                         Cuts/
   Node  Left     Objective  IInf  Best Integer    Best Bound    ItCnt     Gap

*     0+    0                           26.0000        5.0000            80.77%
      0     0        9.7558    11       26.0000        9.7558       97   62.48%
*     0+    0                           16.0000        9.7558            39.03%
      0     0       10.7406     8       16.0000      Cuts: 56      143   32.87%
      0     0       11.5783    10       16.0000      Cuts: 61      295   27.64%
*     0+    0                           12.0000       11.5783             3.51%
      0     0        cutoff             12.0000       11.5783      295    3.51%
Elapsed time = 0.01 sec. (9.39 ticks, tree = 0.01 MB, solutions = 3)

Clique cuts applied:  2
Cover cuts applied:  5
Implied bound cuts applied:  13
Flow cuts applied:  6
Mixed integer rounding cuts applied:  8

Root node processing (before b&c):
  Real time             =    0.01 sec. (9.49 ticks)
Sequential b&c:
  Real time             =    0.00 sec. (0.00 ticks)
                          ------------
Total (root+branch&cut) =    0.01 sec. (9.49 ticks)

Solution pool: 3 solutions saved.

MIP - Integer optimal solution:  Objective =  1.2000000000e+01
Solution time =    0.01 sec.  Iterations = 295  Nodes = 0
Deterministic time = 9.50 ticks  (959.61 ticks/sec)


Incumbent solution written to file '/tmp/tmp4gKVmH.cplex.sol'.

Log started (V12.6.3.0) Mon Jul 24 16:45:08 2017

New value for default parallel thread count: 1

Problem '/tmp/tmpEASt6X.pyomo.lp' read.
Read time = 0.00 sec. (0.23 ticks)

Problem name         : /tmp/tmpEASt6X.pyomo.lp
Objective sense      : Minimize
Variables            :    2462  [Nneg: 2431,  Binary: 30,  General Integer: 1]
Objective nonzeros   :       1
Linear constraints   :    1211  [Less: 30,  Equal: 1181]
  Nonzeros           :    8428
  RHS nonzeros       :      43

Variables            : Min LB: 0.000000         Max UB: 1.000000       
Objective nonzeros   : Min   : 1.000000         Max   : 1.000000       
Linear constraints   :
  Nonzeros           : Min   : 0.9800000        Max   : 20.00000       
  RHS nonzeros       : Min   : 0.5000000        Max   : 19.00000       
Tried aggregator 2 times.
MIP Presolve eliminated 1144 rows and 2230 columns.
MIP Presolve added 1 rows and 1 columns.
Aggregator did 7 substitutions.
Reduced MIP has 61 rows, 226 columns, and 658 nonzeros.
Reduced MIP has 22 binaries, 1 generals, 0 SOSs, and 0 indicators.
Presolve time = 0.00 sec. (2.22 ticks)
Found incumbent of value 26.000000 after 0.00 sec. (3.15 ticks)
Probing fixed 0 vars, tightened 1 bounds.
Probing time = 0.00 sec. (0.04 ticks)
Tried aggregator 1 time.
Reduced MIP has 61 rows, 226 columns, and 658 nonzeros.
Reduced MIP has 22 binaries, 1 generals, 0 SOSs, and 0 indicators.
Presolve time = 0.00 sec. (0.26 ticks)
Probing time = 0.00 sec. (0.04 ticks)
Clique table members: 6.
MIP emphasis: balance optimality and feasibility.
MIP search method: dynamic search.
Parallel mode: none, using 1 thread.
Root relaxation solution time = 0.00 sec. (0.61 ticks)

        Nodes                                         Cuts/
   Node  Left     Objective  IInf  Best Integer    Best Bound    ItCnt     Gap

*     0+    0                           26.0000        5.0000            80.77%
      0     0        9.7558    11       26.0000        9.7558       97   62.48%
*     0+    0                           16.0000        9.7558            39.03%
      0     0       10.7406     8       16.0000      Cuts: 56      143   32.87%
      0     0       11.5783    10       16.0000      Cuts: 61      295   27.64%
*     0+    0                           12.0000       11.5783             3.51%
      0     0        cutoff             12.0000       11.5783      295    3.51%
Elapsed time = 0.01 sec. (9.39 ticks, tree = 0.01 MB, solutions = 3)

Clique cuts applied:  2
Cover cuts applied:  5
Implied bound cuts applied:  13
Flow cuts applied:  6
Mixed integer rounding cuts applied:  8

Root node processing (before b&c):
  Real time             =    0.01 sec. (9.49 ticks)
Sequential b&c:
  Real time             =    0.00 sec. (0.00 ticks)
                          ------------
Total (root+branch&cut) =    0.01 sec. (9.49 ticks)

Solution pool: 3 solutions saved.

MIP - Integer optimal solution:  Objective =  1.2000000000e+01
Solution time =    0.01 sec.  Iterations = 295  Nodes = 0
Deterministic time = 9.50 ticks  (932.86 ticks/sec)


Incumbent solution written to file '/tmp/tmpcXky7f.cplex.sol'.

Log started (V12.6.3.0) Mon Jul 24 16:57:52 2017

New value for default parallel thread count: 1

Problem '/tmp/tmpLzjIhJ.pyomo.lp' read.
Read time = 0.00 sec. (0.23 ticks)

Problem name         : /tmp/tmpLzjIhJ.pyomo.lp
Objective sense      : Minimize
Variables            :    2462  [Nneg: 2431,  Binary: 30,  General Integer: 1]
Objective nonzeros   :       1
Linear constraints   :    1211  [Less: 30,  Equal: 1181]
  Nonzeros           :    8428
  RHS nonzeros       :      43

Variables            : Min LB: 0.000000         Max UB: 1.000000       
Objective nonzeros   : Min   : 1.000000         Max   : 1.000000       
Linear constraints   :
  Nonzeros           : Min   : 0.9800000        Max   : 20.00000       
  RHS nonzeros       : Min   : 0.5000000        Max   : 19.00000       
Tried aggregator 2 times.
MIP Presolve eliminated 1144 rows and 2230 columns.
MIP Presolve added 1 rows and 1 columns.
Aggregator did 7 substitutions.
Reduced MIP has 61 rows, 226 columns, and 658 nonzeros.
Reduced MIP has 22 binaries, 1 generals, 0 SOSs, and 0 indicators.
Presolve time = 0.00 sec. (2.22 ticks)
Found incumbent of value 26.000000 after 0.00 sec. (3.15 ticks)
Probing fixed 0 vars, tightened 1 bounds.
Probing time = 0.00 sec. (0.04 ticks)
Tried aggregator 1 time.
Reduced MIP has 61 rows, 226 columns, and 658 nonzeros.
Reduced MIP has 22 binaries, 1 generals, 0 SOSs, and 0 indicators.
Presolve time = 0.00 sec. (0.26 ticks)
Probing time = 0.00 sec. (0.04 ticks)
Clique table members: 6.
MIP emphasis: balance optimality and feasibility.
MIP search method: dynamic search.
Parallel mode: none, using 1 thread.
Root relaxation solution time = 0.00 sec. (0.61 ticks)

        Nodes                                         Cuts/
   Node  Left     Objective  IInf  Best Integer    Best Bound    ItCnt     Gap

*     0+    0                           26.0000        5.0000            80.77%
      0     0        9.7558    11       26.0000        9.7558       97   62.48%
*     0+    0                           16.0000        9.7558            39.03%
      0     0       10.7406     8       16.0000      Cuts: 56      143   32.87%
      0     0       11.5783    10       16.0000      Cuts: 61      295   27.64%
*     0+    0                           12.0000       11.5783             3.51%
      0     0        cutoff             12.0000       11.5783      295    3.51%
Elapsed time = 0.01 sec. (9.39 ticks, tree = 0.01 MB, solutions = 3)

Clique cuts applied:  2
Cover cuts applied:  5
Implied bound cuts applied:  13
Flow cuts applied:  6
Mixed integer rounding cuts applied:  8

Root node processing (before b&c):
  Real time             =    0.01 sec. (9.49 ticks)
Sequential b&c:
  Real time             =    0.00 sec. (0.00 ticks)
                          ------------
Total (root+branch&cut) =    0.01 sec. (9.49 ticks)

Solution pool: 3 solutions saved.

MIP - Integer optimal solution:  Objective =  1.2000000000e+01
Solution time =    0.01 sec.  Iterations = 295  Nodes = 0
Deterministic time = 9.50 ticks  (968.12 ticks/sec)


Incumbent solution written to file '/tmp/tmpjFpqgo.cplex.sol'.

Log started (V12.6.3.0) Wed Jul 26 11:54:42 2017

New value for default parallel thread count: 1

Problem '/tmp/tmpleRWBm.pyomo.lp' read.
Read time = 0.01 sec. (0.23 ticks)

Problem name         : /tmp/tmpleRWBm.pyomo.lp
Objective sense      : Minimize
Variables            :    2462  [Nneg: 2431,  Binary: 30,  General Integer: 1]
Objective nonzeros   :       1
Linear constraints   :    1211  [Less: 30,  Equal: 1181]
  Nonzeros           :    8428
  RHS nonzeros       :      43

Variables            : Min LB: 0.000000         Max UB: 1.000000       
Objective nonzeros   : Min   : 1.000000         Max   : 1.000000       
Linear constraints   :
  Nonzeros           : Min   : 0.9800000        Max   : 20.00000       
  RHS nonzeros       : Min   : 0.5000000        Max   : 19.00000       
Tried aggregator 2 times.
MIP Presolve eliminated 1144 rows and 2230 columns.
MIP Presolve added 1 rows and 1 columns.
Aggregator did 7 substitutions.
Reduced MIP has 61 rows, 226 columns, and 658 nonzeros.
Reduced MIP has 22 binaries, 1 generals, 0 SOSs, and 0 indicators.
Presolve time = 0.00 sec. (2.22 ticks)
Found incumbent of value 26.000000 after 0.01 sec. (3.15 ticks)
Probing fixed 0 vars, tightened 1 bounds.
Probing time = 0.00 sec. (0.04 ticks)
Tried aggregator 1 time.
Reduced MIP has 61 rows, 226 columns, and 658 nonzeros.
Reduced MIP has 22 binaries, 1 generals, 0 SOSs, and 0 indicators.
Presolve time = 0.00 sec. (0.26 ticks)
Probing time = 0.00 sec. (0.04 ticks)
Clique table members: 6.
MIP emphasis: balance optimality and feasibility.
MIP search method: dynamic search.
Parallel mode: none, using 1 thread.
Root relaxation solution time = 0.00 sec. (0.61 ticks)

        Nodes                                         Cuts/
   Node  Left     Objective  IInf  Best Integer    Best Bound    ItCnt     Gap

*     0+    0                           26.0000        5.0000            80.77%
      0     0        9.7558    11       26.0000        9.7558       97   62.48%
*     0+    0                           16.0000        9.7558            39.03%
      0     0       10.7406     8       16.0000      Cuts: 56      143   32.87%
      0     0       11.5783    10       16.0000      Cuts: 61      295   27.64%
*     0+    0                           12.0000       11.5783             3.51%
      0     0        cutoff             12.0000       11.5783      295    3.51%
Elapsed time = 0.01 sec. (9.39 ticks, tree = 0.01 MB, solutions = 3)

Clique cuts applied:  2
Cover cuts applied:  5
Implied bound cuts applied:  13
Flow cuts applied:  6
Mixed integer rounding cuts applied:  8

Root node processing (before b&c):
  Real time             =    0.01 sec. (9.49 ticks)
Sequential b&c:
  Real time             =    0.00 sec. (0.00 ticks)
                          ------------
Total (root+branch&cut) =    0.01 sec. (9.49 ticks)

Solution pool: 3 solutions saved.

MIP - Integer optimal solution:  Objective =  1.2000000000e+01
Solution time =    0.01 sec.  Iterations = 295  Nodes = 0
Deterministic time = 9.50 ticks  (709.88 ticks/sec)


Incumbent solution written to file '/tmp/tmpqiqj4f.cplex.sol'.
